50 1225
1 2 42
1 3 19
1 4 120
1 5 69
1 6 66
1 7 8
1 8 145
1 9 133
1 10 85
1 11 111
1 12 138
1 13 75
1 14 68
1 15 107
1 16 73
1 17 133
1 18 14
1 19 70
1 20 85
1 21 124
1 22 13
1 23 136
1 24 146
1 25 64
1 26 93
1 27 137
1 28 138
1 29 15
1 30 59
1 31 131
1 32 131
1 33 21
1 34 11
1 35 106
1 36 98
1 37 29
1 38 22
1 39 89
1 40 67
1 41 52
1 42 99
1 43 85
1 44 105
1 45 26
1 46 35
1 47 38
1 48 139
1 49 137
1 50 32
2 3 114
2 4 28
2 5 113
2 6 13
2 7 69
2 8 53
2 9 83
2 10 51
2 11 104
2 12 79
2 13 7
2 14 78
2 15 139
2 16 144
2 17 107
2 18 84
2 19 147
2 20 113
2 21 101
2 22 117
2 23 102
2 24 14
2 25 100
2 26 104
2 27 129
2 28 138
2 29 35
2 30 20
2 31 68
2 32 106
2 33 14
2 34 72
2 35 36
2 36 114
2 37 5
2 38 92
2 39 22
2 40 28
2 41 86
2 42 93
2 43 138
2 44 76
2 45 23
2 46 23
2 47 79
2 48 102
2 49 19
2 50 102
3 4 93
3 5 66
3 6 32
3 7 133
3 8 66
3 9 144
3 10 46
3 11 73
3 12 73
3 13 77
3 14 130
3 15 107
3 16 37
3 17 148
3 18 119
3 19 100
3 20 31
3 21 27
3 22 96
3 23 19
3 24 117
3 25 78
3 26 80
3 27 61
3 28 21
3 29 73
3 30 70
3 31 66
3 32 66
3 33 62
3 34 105
3 35 102
3 36 138
3 37 15
3 38 143
3 39 1
3 40 45
3 41 46
3 42 90
3 43 121
3 44 75
3 45 62
3 46 72
3 47 83
3 48 67
3 49 22
3 50 99
4 5 106
4 6 106
4 7 112
4 8 85
4 9 75
4 10 55
4 11 61
4 12 119
4 13 13
4 14 2
4 15 112
4 16 116
4 17 84
4 18 79
4 19 141
4 20 110
4 21 82
4 22 71
4 23 88
4 24 28
4 25 81
4 26 73
4 27 60
4 28 132
4 29 83
4 30 132
4 31 60
4 32 146
4 33 72
4 34 122
4 35 108
4 36 140
4 37 86
4 38 143
4 39 119
4 40 125
4 41 112
4 42 78
4 43 75
4 44 70
4 45 84
4 46 43
4 47 77
4 48 80
4 49 56
4 50 114
5 6 100
5 7 58
5 8 128
5 9 64
5 10 38
5 11 90
5 12 97
5 13 148
5 14 24
5 15 135
5 16 31
5 17 54
5 18 138
5 19 99
5 20 133
5 21 100
5 22 48
5 23 108
5 24 44
5 25 124
5 26 21
5 27 65
5 28 49
5 29 7
5 30 53
5 31 75
5 32 5
5 33 82
5 34 117
5 35 5
5 36 93
5 37 149
5 38 113
5 39 72
5 40 78
5 41 116
5 42 63
5 43 58
5 44 132
5 45 82
5 46 4
5 47 118
5 48 76
5 49 72
5 50 76
6 7 86
6 8 89
6 9 131
6 10 113
6 11 95
6 12 70
6 13 34
6 14 22
6 15 68
6 16 54
6 17 106
6 18 66
6 19 14
6 20 66
6 21 76
6 22 7
6 23 101
6 24 112
6 25 36
6 26 45
6 27 67
6 28 85
6 29 122
6 30 56
6 31 4
6 32 76
6 33 53
6 34 92
6 35 35
6 36 17
6 37 122
6 38 130
6 39 100
6 40 120
6 41 90
6 42 58
6 43 53
6 44 41
6 45 65
6 46 116
6 47 44
6 48 55
6 49 71
6 50 27
7 8 127
7 9 128
7 10 96
7 11 7
7 12 136
7 13 12
7 14 13
7 15 112
7 16 42
7 17 140
7 18 73
7 19 76
7 20 61
7 21 55
7 22 108
7 23 102
7 24 76
7 25 136
7 26 79
7 27 67
7 28 57
7 29 92
7 30 130
7 31 93
7 32 138
7 33 93
7 34 58
7 35 138
7 36 118
7 37 49
7 38 61
7 39 19
7 40 125
7 41 96
7 42 4
7 43 135
7 44 67
7 45 9
7 46 109
7 47 99
7 48 5
7 49 12
7 50 62
8 9 5
8 10 144
8 11 58
8 12 102
8 13 109
8 14 127
8 15 62
8 16 131
8 17 87
8 18 104
8 19 49
8 20 130
8 21 143
8 22 114
8 23 135
8 24 84
8 25 61
8 26 46
8 27 94
8 28 50
8 29 31
8 30 52
8 31 18
8 32 7
8 33 85
8 34 62
8 35 117
8 36 104
8 37 83
8 38 92
8 39 85
8 40 77
8 41 106
8 42 77
8 43 86
8 44 39
8 45 88
8 46 56
8 47 64
8 48 116
8 49 69
8 50 39
9 10 89
9 11 26
9 12 103
9 13 33
9 14 23
9 15 17
9 16 138
9 17 132
9 18 42
9 19 14
9 20 94
9 21 121
9 22 21
9 23 69
9 24 116
9 25 101
9 26 109
9 27 128
9 28 145
9 29 2
9 30 149
9 31 28
9 32 45
9 33 57
9 34 98
9 35 12
9 36 122
9 37 72
9 38 137
9 39 84
9 40 47
9 41 83
9 42 91
9 43 72
9 44 102
9 45 49
9 46 130
9 47 33
9 48 41
9 49 112
9 50 137
10 11 34
10 12 112
10 13 147
10 14 109
10 15 117
10 16 119
10 17 117
10 18 33
10 19 42
10 20 121
10 21 144
10 22 44
10 23 45
10 24 125
10 25 89
10 26 119
10 27 69
10 28 141
10 29 88
10 30 148
10 31 88
10 32 79
10 33 31
10 34 74
10 35 21
10 36 144
10 37 34
10 38 102
10 39 2
10 40 92
10 41 59
10 42 24
10 43 87
10 44 27
10 45 109
10 46 110
10 47 106
10 48 23
10 49 59
10 50 98
11 12 100
11 13 120
11 14 67
11 15 37
11 16 92
11 17 95
11 18 133
11 19 60
11 20 68
11 21 81
11 22 61
11 23 112
11 24 148
11 25 47
11 26 88
11 27 34
11 28 81
11 29 41
11 30 134
11 31 87
11 32 10
11 33 115
11 34 123
11 35 11
11 36 107
11 37 149
11 38 37
11 39 94
11 40 97
11 41 77
11 42 142
11 43 92
11 44 15
11 45 92
11 46 91
11 47 109
11 48 32
11 49 46
11 50 17
12 13 48
12 14 96
12 15 74
12 16 58
12 17 119
12 18 116
12 19 122
12 20 79
12 21 15
12 22 120
12 23 9
12 24 121
12 25 95
12 26 123
12 27 61
12 28 111
12 29 106
12 30 75
12 31 107
12 32 111
12 33 54
12 34 86
12 35 115
12 36 133
12 37 114
12 38 119
12 39 143
12 40 142
12 41 46
12 42 110
12 43 28
12 44 118
12 45 17
12 46 126
12 47 8
12 48 3
12 49 103
12 50 96
13 14 125
13 15 103
13 16 80
13 17 17
13 18 32
13 19 131
13 20 79
13 21 22
13 22 56
13 23 40
13 24 137
13 25 107
13 26 17
13 27 59
13 28 21
13 29 41
13 30 70
13 31 149
13 32 118
13 33 113
13 34 149
13 35 107
13 36 31
13 37 140
13 38 94
13 39 12
13 40 52
13 41 35
13 42 24
13 43 29
13 44 108
13 45 117
13 46 74
13 47 68
13 48 79
13 49 90
13 50 140
14 15 55
14 16 12
14 17 35
14 18 105
14 19 47
14 20 71
14 21 127
14 22 139
14 23 28
14 24 3
14 25 92
14 26 121
14 27 17
14 28 99
14 29 94
14 30 18
14 31 105
14 32 23
14 33 68
14 34 100
14 35 118
14 36 42
14 37 113
14 38 132
14 39 102
14 40 48
14 41 133
14 42 77
14 43 90
14 44 29
14 45 102
14 46 126
14 47 30
14 48 36
14 49 48
14 50 25
15 16 26
15 17 1
15 18 120
15 19 118
15 20 51
15 21 141
15 22 64
15 23 147
15 24 104
15 25 125
15 26 41
15 27 66
15 28 100
15 29 41
15 30 139
15 31 85
15 32 131
15 33 143
15 34 7
15 35 124
15 36 22
15 37 108
15 38 139
15 39 37
15 40 62
15 41 53
15 42 145
15 43 104
15 44 111
15 45 29
15 46 18
15 47 86
15 48 103
15 49 133
15 50 102
16 17 147
16 18 70
16 19 66
16 20 12
16 21 148
16 22 149
16 23 142
16 24 78
16 25 81
16 26 123
16 27 82
16 28 3
16 29 26
16 30 120
16 31 117
16 32 20
16 33 117
16 34 11
16 35 105
16 36 101
16 37 11
16 38 124
16 39 19
16 40 105
16 41 13
16 42 129
16 43 16
16 44 34
16 45 44
16 46 42
16 47 142
16 48 57
16 49 87
16 50 27
17 18 39
17 19 8
17 20 121
17 21 114
17 22 146
17 23 132
17 24 53
17 25 49
17 26 107
17 27 94
17 28 64
17 29 51
17 30 59
17 31 90
17 32 95
17 33 122
17 34 65
17 35 104
17 36 93
17 37 56
17 38 79
17 39 110
17 40 119
17 41 77
17 42 66
17 43 144
17 44 36
17 45 13
17 46 4
17 47 5
17 48 71
17 49 88
17 50 149
18 19 143
18 20 141
18 21 8
18 22 93
18 23 62
18 24 77
18 25 110
18 26 20
18 27 127
18 28 30
18 29 7
18 30 50
18 31 123
18 32 33
18 33 33
18 34 48
18 35 83
18 36 37
18 37 58
18 38 88
18 39 60
18 40 138
18 41 148
18 42 115
18 43 82
18 44 58
18 45 87
18 46 69
18 47 74
18 48 76
18 49 114
18 50 134
19 20 17
19 21 76
19 22 90
19 23 121
19 24 5
19 25 104
19 26 32
19 27 51
19 28 61
19 29 56
19 30 60
19 31 67
19 32 128
19 33 1
19 34 114
19 35 9
19 36 130
19 37 58
19 38 145
19 39 91
19 40 54
19 41 102
19 42 112
19 43 36
19 44 101
19 45 145
19 46 100
19 47 1
19 48 118
19 49 40
19 50 11
20 21 118
20 22 10
20 23 68
20 24 111
20 25 2
20 26 91
20 27 54
20 28 44
20 29 147
20 30 27
20 31 132
20 32 18
20 33 93
20 34 34
20 35 5
20 36 30
20 37 100
20 38 43
20 39 96
20 40 112
20 41 73
20 42 43
20 43 31
20 44 99
20 45 21
20 46 61
20 47 42
20 48 127
20 49 77
20 50 10
21 22 7
21 23 132
21 24 0
21 25 142
21 26 128
21 27 7
21 28 68
21 29 116
21 30 141
21 31 36
21 32 8
21 33 123
21 34 74
21 35 84
21 36 142
21 37 54
21 38 53
21 39 119
21 40 112
21 41 4
21 42 29
21 43 96
21 44 53
21 45 134
21 46 72
21 47 37
21 48 22
21 49 6
21 50 66
22 23 131
22 24 93
22 25 42
22 26 61
22 27 123
22 28 84
22 29 113
22 30 118
22 31 129
22 32 30
22 33 62
22 34 113
22 35 144
22 36 29
22 37 106
22 38 116
22 39 0
22 40 73
22 41 98
22 42 42
22 43 143
22 44 59
22 45 123
22 46 92
22 47 40
22 48 1
22 49 19
22 50 43
23 24 26
23 25 76
23 26 54
23 27 22
23 28 76
23 29 21
23 30 118
23 31 119
23 32 35
23 33 137
23 34 26
23 35 137
23 36 94
23 37 48
23 38 56
23 39 56
23 40 112
23 41 57
23 42 52
23 43 70
23 44 55
23 45 73
23 46 121
23 47 83
23 48 52
23 49 41
23 50 67
24 25 139
24 26 18
24 27 111
24 28 73
24 29 1
24 30 24
24 31 51
24 32 23
24 33 22
24 34 148
24 35 60
24 36 70
24 37 41
24 38 64
24 39 63
24 40 96
24 41 87
24 42 89
24 43 89
24 44 94
24 45 8
24 46 147
24 47 31
24 48 140
24 49 68
24 50 14
25 26 5
25 27 136
25 28 75
25 29 58
25 30 111
25 31 126
25 32 67
25 33 76
25 34 119
25 35 36
25 36 117
25 37 82
25 38 146
25 39 9
25 40 50
25 41 105
25 42 95
25 43 66
25 44 13
25 45 109
25 46 3
25 47 26
25 48 15
25 49 50
25 50 28
26 27 34
26 28 9
26 29 69
26 30 9
26 31 89
26 32 146
26 33 46
26 34 67
26 35 38
26 36 94
26 37 14
26 38 24
26 39 87
26 40 65
26 41 146
26 42 74
26 43 147
26 44 64
26 45 149
26 46 9
26 47 134
26 48 8
26 49 84
26 50 51
27 28 96
27 29 87
27 30 130
27 31 56
27 32 36
27 33 46
27 34 27
27 35 81
27 36 141
27 37 25
27 38 110
27 39 23
27 40 44
27 41 102
27 42 128
27 43 61
27 44 141
27 45 104
27 46 107
27 47 5
27 48 100
27 49 32
27 50 28
28 29 37
28 30 20
28 31 61
28 32 36
28 33 58
28 34 123
28 35 138
28 36 21
28 37 13
28 38 27
28 39 83
28 40 147
28 41 46
28 42 12
28 43 20
28 44 27
28 45 95
28 46 47
28 47 6
28 48 40
28 49 27
28 50 23
29 30 144
29 31 112
29 32 140
29 33 19
29 34 76
29 35 45
29 36 132
29 37 103
29 38 118
29 39 17
29 40 133
29 41 116
29 42 106
29 43 19
29 44 22
29 45 120
29 46 79
29 47 90
29 48 125
29 49 4
29 50 86
30 31 31
30 32 62
30 33 21
30 34 111
30 35 24
30 36 19
30 37 15
30 38 15
30 39 33
30 40 144
30 41 127
30 42 116
30 43 130
30 44 137
30 45 92
30 46 109
30 47 7
30 48 66
30 49 4
30 50 2
31 32 29
31 33 25
31 34 96
31 35 34
31 36 59
31 37 93
31 38 51
31 39 44
31 40 114
31 41 121
31 42 18
31 43 96
31 44 146
31 45 18
31 46 93
31 47 118
31 48 9
31 49 140
31 50 1
32 33 88
32 34 43
32 35 132
32 36 9
32 37 147
32 38 102
32 39 47
32 40 29
32 41 8
32 42 23
32 43 147
32 44 127
32 45 49
32 46 49
32 47 118
32 48 77
32 49 43
32 50 106
33 34 37
33 35 90
33 36 133
33 37 45
33 38 134
33 39 83
33 40 136
33 41 75
33 42 94
33 43 127
33 44 118
33 45 33
33 46 75
33 47 92
33 48 49
33 49 32
33 50 62
34 35 60
34 36 44
34 37 30
34 38 116
34 39 133
34 40 0
34 41 28
34 42 149
34 43 44
34 44 119
34 45 149
34 46 4
34 47 37
34 48 147
34 49 124
34 50 49
35 36 131
35 37 99
35 38 51
35 39 4
35 40 105
35 41 56
35 42 47
35 43 73
35 44 24
35 45 122
35 46 7
35 47 143
35 48 40
35 49 73
35 50 139
36 37 33
36 38 126
36 39 148
36 40 141
36 41 105
36 42 17
36 43 61
36 44 28
36 45 40
36 46 147
36 47 3
36 48 127
36 49 1
36 50 73
37 38 86
37 39 76
37 40 79
37 41 25
37 42 52
37 43 33
37 44 137
37 45 59
37 46 116
37 47 56
37 48 83
37 49 49
37 50 12
38 39 139
38 40 91
38 41 131
38 42 132
38 43 144
38 44 10
38 45 48
38 46 132
38 47 106
38 48 104
38 49 131
38 50 34
39 40 38
39 41 33
39 42 100
39 43 118
39 44 38
39 45 38
39 46 28
39 47 146
39 48 19
39 49 52
39 50 134
40 41 29
40 42 76
40 43 31
40 44 83
40 45 77
40 46 41
40 47 94
40 48 133
40 49 142
40 50 62
41 42 123
41 43 128
41 44 34
41 45 80
41 46 126
41 47 127
41 48 83
41 49 41
41 50 51
42 43 95
42 44 36
42 45 26
42 46 1
42 47 119
42 48 140
42 49 88
42 50 77
43 44 22
43 45 40
43 46 1
43 47 109
43 48 118
43 49 90
43 50 148
44 45 98
44 46 135
44 47 49
44 48 101
44 49 53
44 50 6
45 46 32
45 47 126
45 48 67
45 49 86
45 50 140
46 47 48
46 48 30
46 49 145
46 50 123
47 48 78
47 49 77
47 50 22
48 49 16
48 50 50
49 50 40
